c read Graph
c width = 53
c time = 411 ms
c width = 6
c time = 561 ms
c width = 6
c time = 4423 ms
s td 61 7 66
b 1 1 2 12
b 2 2 3 12 13
b 3 9 10 21 22
b 4 3 12 13 23
b 5 9 21 22 33
b 6 34 45 46 57
b 7 44 54 55 65
b 8 34 46 57 58
b 9 44 54 64 65
b 10 3 4 5 15
b 11 5 6 7 17
b 12 7 8 9 19
b 13 3 13 14 23 24
b 14 9 20 21 32 33
b 15 3 14 23 24 34
b 16 9 20 32 33 44
b 17 34 35 46 47 58
b 18 43 44 53 54 64
b 19 34 35 47 58 59
b 20 49 59 60 61
b 21 51 61 62 63
b 22 43 44 53 63 64
b 23 5 15 16 17 27
b 24 7 17 18 19 29
b 25 17 27 28 29 39
b 26 37 47 48 49 59
b 27 25 35 36 37 47
b 28 3 14 24 25 34 35
b 29 3 14 15 25 34 35
b 30 3 5 15 25 34 35
b 31 15 25 26 27 37
b 32 27 37 38 39 49
b 33 39 49 50 51 61
b 34 29 39 40 41 51
b 35 41 51 52 53 63
b 36 19 29 30 31 41
b 37 31 41 42 43 53
b 38 9 19 20 31 32 44
b 39 9 19 31 32 43 44
b 40 7 9 19 31 43 44
b 41 5 15 25 34 35 47 59
b 42 5 15 25 35 37 47 59
b 43 5 15 25 27 37 47 59
b 44 5 15 27 37 47 49 59
b 45 5 15 17 27 37 49 59
b 46 5 17 27 37 39 49 59
b 47 5 17 27 29 39 49 59
b 48 5 7 17 29 39 49 59
b 49 7 17 19 29 39 49 59
b 50 7 19 29 39 49 59 61
b 51 7 19 29 39 49 51 61
b 52 7 19 29 39 41 51 61
b 53 7 19 29 31 41 51 61
b 54 7 19 31 41 51 61 63
b 55 7 19 31 43 44 53 63
b 56 7 19 31 41 43 53 63
b 57 7 19 31 41 51 53 63
b 58 41 51 53 63
b 59 55 65 66
b 60 45 56 57
b 61 10 11 22
1 2
2 4
3 61
3 5
4 13
5 14
6 60
6 8
7 59
7 9
8 17
9 18
10 30
11 48
12 40
13 15
14 16
15 28
16 38
17 19
18 22
19 41
20 50
21 54
22 55
23 45
24 49
25 47
26 44
27 42
28 29
29 30
30 41
31 43
32 46
33 51
34 52
35 58
36 53
37 56
38 39
39 40
40 55
41 42
42 43
43 44
44 45
45 46
46 47
47 48
48 49
49 50
50 51
51 52
52 53
53 54
54 57
55 56
56 57
57 58
